8636370523188322226508,14,1,2,015,1,1,2,04,11,1,2,01,4,1,2,05,12,1,2,04,13,1,2,012,3,1,2,06,5,1,2,013,15,1,2,014,10,1,2,011,3,1,2,02,11,1,2,05,9,1,2,09,12,1,2,03,1,1,2,015,10,1,2,01,12,1,2,014,1,1,2,02,13,1,2,01,1,1,2,015,13,1,2,013,2,1,2,015,1,1,2,05,14,1,2,08,4,1,2,01,10,1,2,01,6,1,2,010,14,1,2,011,15,1,2,06,12,1,2,012,2,1,2,09,7,1,2,06,14,1,2,01,10,1,2,014,10,1,2,09,12,1,2,05,1,1,2,08,14,1,2,02,5,1,2,01,9,1,2,06,9,1,2,02,6,1,2,015,6,1,2,010,14,1,2,01,4,1,2,012,15,1,2,011,12,1,2,011,15,1,2,04,14,1,2,01,5,1,2,0